<?xml version = "1.0" standalone="yes"?>
<!-- This file has been generated by DOcplex version 2.23.222  -->
<CPLEXSolution version="1.0">
 <header
   problemName="CVRP"
   objectiveValue="19934.6"
  />
 <variables>
  <variable name="x_0_2" index="1" value="1.00000"/>
  <variable name="x_0_3" index="2" value="1.00000"/>
  <variable name="x_0_4" index="3" value="1.00000"/>
  <variable name="x_0_5" index="4" value="1.00000"/>
  <variable name="x_0_6" index="5" value="1.00000"/>
  <variable name="x_0_7" index="6" value="1.00000"/>
  <variable name="x_0_8" index="7" value="1.00000"/>
  <variable name="x_0_10" index="9" value="1.00000"/>
  <variable name="x_0_11" index="10" value="1.00000"/>
  <variable name="x_0_13" index="12" value="1.00000"/>
  <variable name="x_0_14" index="13" value="1.00000"/>
  <variable name="x_0_15" index="14" value="1.00000"/>
  <variable name="x_0_16" index="15" value="1.00000"/>
  <variable name="x_0_18" index="17" value="1.00000"/>
  <variable name="x_0_19" index="18" value="1.00000"/>
  <variable name="x_0_20" index="19" value="1.00000"/>
  <variable name="x_0_21" index="20" value="1.00000"/>
  <variable name="x_0_22" index="21" value="1.00000"/>
  <variable name="x_0_23" index="22" value="1.00000"/>
  <variable name="x_0_26" index="25" value="1.00000"/>
  <variable name="x_0_28" index="27" value="1.00000"/>
  <variable name="x_1_0" index="28" value="1.00000"/>
  <variable name="x_2_0" index="56" value="1.00000"/>
  <variable name="x_3_0" index="84" value="1.00000"/>
  <variable name="x_4_0" index="112" value="1.00000"/>
  <variable name="x_5_9" index="148" value="1.00000"/>
  <variable name="x_6_12" index="179" value="1.00000"/>
  <variable name="x_7_0" index="196" value="1.00000"/>
  <variable name="x_8_25" index="248" value="1.00000"/>
  <variable name="x_9_0" index="252" value="1.00000"/>
  <variable name="x_10_0" index="280" value="1.00000"/>
  <variable name="x_11_0" index="308" value="1.00000"/>
  <variable name="x_12_0" index="336" value="1.00000"/>
  <variable name="x_13_0" index="364" value="1.00000"/>
  <variable name="x_14_0" index="392" value="1.00000"/>
  <variable name="x_15_0" index="420" value="1.00000"/>
  <variable name="x_16_0" index="448" value="1.00000"/>
  <variable name="x_17_27" index="502" value="1.00000"/>
  <variable name="x_18_0" index="504" value="1.00000"/>
  <variable name="x_19_24" index="555" value="1.00000"/>
  <variable name="x_20_0" index="560" value="1.00000"/>
  <variable name="x_21_1" index="589" value="1.00000"/>
  <variable name="x_22_0" index="616" value="1.00000"/>
  <variable name="x_23_0" index="644" value="1.00000"/>
  <variable name="x_24_0" index="672" value="1.00000"/>
  <variable name="x_25_0" index="700" value="1.00000"/>
  <variable name="x_26_0" index="728" value="1.00000"/>
  <variable name="x_27_0" index="756" value="1.00000"/>
  <variable name="x_28_17" index="801" value="1.00000"/>
  <variable name="u_1" index="812" value="37.00000"/>
  <variable name="u_2" index="813" value="34.00000"/>
  <variable name="u_3" index="814" value="27.00000"/>
  <variable name="u_4" index="815" value="30.00000"/>
  <variable name="u_5" index="816" value="19.00000"/>
  <variable name="u_6" index="817" value="8.00000"/>
  <variable name="u_7" index="818" value="30.00000"/>
  <variable name="u_8" index="819" value="17.00000"/>
  <variable name="u_9" index="820" value="32.00000"/>
  <variable name="u_10" index="821" value="37.00000"/>
  <variable name="u_11" index="822" value="37.00000"/>
  <variable name="u_12" index="823" value="36.00000"/>
  <variable name="u_13" index="824" value="30.00000"/>
  <variable name="u_14" index="825" value="31.00000"/>
  <variable name="u_15" index="826" value="34.00000"/>
  <variable name="u_16" index="827" value="33.00000"/>
  <variable name="u_17" index="828" value="20.00000"/>
  <variable name="u_18" index="829" value="36.00000"/>
  <variable name="u_19" index="830" value="10.00000"/>
  <variable name="u_20" index="831" value="33.00000"/>
  <variable name="u_21" index="832" value="21.00000"/>
  <variable name="u_22" index="833" value="30.00000"/>
  <variable name="u_23" index="834" value="37.00000"/>
  <variable name="u_24" index="835" value="37.00000"/>
  <variable name="u_25" index="836" value="37.00000"/>
  <variable name="u_26" index="837" value="37.00000"/>
  <variable name="u_27" index="838" value="30.00000"/>
  <variable name="u_28" index="839" value="10.00000"/>
 </variables>
</CPLEXSolution>
